NAME: ./prFile/tspFile/tsp_file83.tsp
COMMENT: TSP file generated by Python
TYPE: TSP
DIMENSION: 40
EDGE_WEIGHT_TYPE: EUC_2D
NODE_COORD_SECTION
1 45 93
2 61 25
3 71 37
4 61 36
5 61 85
6 15 83
7 10 62
8 2 2
9 51 75
10 73 21
11 6 23
12 28 93
13 32 46
14 30 22
15 58 99
16 94 3
17 50 80
18 41 23
19 40 99
20 53 37
21 3 61
22 58 71
23 96 33
24 73 2
25 75 81
26 2 75
27 2 59
28 73 47
29 40 43
30 97 98
31 34 63
32 80 72
33 17 49
34 5 34
35 82 91
36 28 81
37 14 58
38 25 34
39 44 89
40 84 91
EOF
